Copyright (C) 2013-2015, Filipe Brandao
Build (method = -2)
  #dp: 6104
  Step-3' Graph: 111 vertices and 2896 arcs (0.00s)
  Step-4' Graph: 110 vertices and 2894 arcs (0.00s)
  #V4/#V3 = 0.99
  #A4/#A3 = 1.00
Ready! (0.00s)
Optimize a model with 191 rows, 2895 columns and 8471 nonzeros
Found heuristic solution: objective 184
Presolve removed 30 rows and 31 columns
Presolve time: 0.02s
Presolved: 161 rows, 2864 columns, 8372 nonzeros
Variable types: 0 continuous, 2864 integer (797 binary)
Optimize a model with 161 rows, 2864 columns and 8372 nonzeros
Presolved: 161 rows, 2864 columns, 8372 nonzeros

Root barrier log...

Ordering time: 0.00s

Barrier statistics:
 AA' NZ     : 5.275e+03
 Factor NZ  : 8.146e+03 (roughly 1 MByte of memory)
 Factor Ops : 5.713e+05 (less than 1 second per iteration)
 Threads    : 1

                  Objective                Residual
Iter       Primal          Dual         Primal    Dual     Compl     Time
   0   3.24799963e+03 -1.80249847e+04  1.36e+04 6.08e-02  2.54e+01     0s
   1   9.23368306e+02 -6.38749809e+03  1.59e+03 6.66e-16  3.68e+00     0s
   2   3.46211678e+02 -2.46035797e+03  2.00e+02 2.29e-02  7.43e-01     0s
   3   2.08710739e+02 -4.45116182e+02  2.04e+01 2.79e-03  1.31e-01     0s
   4   1.62498183e+02 -1.15799562e+02  8.24e+00 9.06e-04  5.32e-02     0s
   5   1.26269913e+02 -2.02828153e+01  3.51e+00 3.84e-04  2.71e-02     0s
   6   1.07622998e+02  1.71022766e+01  1.90e+00 1.52e-04  1.64e-02     0s
   7   9.57802833e+01  4.48583507e+01  1.05e+00 2.39e-16  9.16e-03     0s
   8   9.11621594e+01  6.07996425e+01  7.36e-01 2.95e-16  5.45e-03     0s
   9   8.94050174e+01  6.56198081e+01  4.91e-01 2.10e-16  4.24e-03     0s
  10   8.83239164e+01  7.37857573e+01  3.77e-01 2.66e-16  2.59e-03     0s
  11   8.66356655e+01  7.74938063e+01  2.60e-01 2.62e-16  1.62e-03     0s
  12   8.55484513e+01  7.92175756e+01  1.80e-01 2.35e-16  1.12e-03     0s
  13   8.47280508e+01  8.08130279e+01  1.16e-01 2.22e-16  6.88e-04     0s
  14   8.40670965e+01  8.15014116e+01  6.81e-02 2.29e-16  4.49e-04     0s
  15   8.36326551e+01  8.21507851e+01  3.58e-02 2.28e-16  2.59e-04     0s
  16   8.34304339e+01  8.26488835e+01  2.17e-02 2.22e-16  1.36e-04     0s
  17   8.33489338e+01  8.27848471e+01  1.67e-02 2.22e-16  9.84e-05     0s
  18   8.33193308e+01  8.28436417e+01  1.45e-02 2.22e-16  8.30e-05     0s
  19   8.32148982e+01  8.29504843e+01  8.28e-03 3.33e-16  4.61e-05     0s
  20   8.31273586e+01  8.30211079e+01  3.04e-03 3.33e-16  1.85e-05     0s
  21   8.31138428e+01  8.30315558e+01  2.43e-03 2.22e-16  1.43e-05     0s
  22   8.31012410e+01  8.30385485e+01  1.87e-03 2.22e-16  1.09e-05     0s
  23   8.30901250e+01  8.30454471e+01  1.41e-03 2.22e-16  7.79e-06     0s
  24   8.30813524e+01  8.30546607e+01  1.02e-03 2.78e-16  4.66e-06     0s
  25   8.30702379e+01  8.30653624e+01  7.19e-05 3.33e-16  8.47e-07     0s
  26   8.30666725e+01  8.30666504e+01  3.67e-12 3.42e-16  3.83e-09     0s
  27   8.30666667e+01  8.30666667e+01  3.73e-12 3.33e-16  3.83e-12     0s

Barrier solved model in 27 iterations and 0.04 seconds
Optimal objective 8.30666667e+01


Root relaxation: objective 8.306667e+01, 1722 iterations, 0.04 seconds

    Nodes    |    Current Node    |     Objective Bounds      |     Work
 Expl Unexpl |  Obj  Depth IntInf | Incumbent    BestBd   Gap | It/Node Time

     0     0   83.06667    0   47  184.00000   83.06667  54.9%     -    0s
H    0     0                      85.0000000   83.06667  2.27%     -    0s
H    0     0                      84.0000000   83.06667  1.11%     -    0s

Explored 0 nodes (2704 simplex iterations) in 0.12 seconds
Thread count was 1 (of 4 available processors)

Optimal solution found (tolerance 0.00e+00)
Best objective 8.400000000000e+01, best bound 8.400000000000e+01, gap 0.0%
Preprocessing time: 0.01 seconds
Gurobi run time: 0.12 seconds
Total run time: 0.13 seconds
Objective: 84
Solution:
1 x [i=1, i=57]
1 x [i=1, i=77]
1 x [i=1, i=78]
1 x [i=2, i=56]
1 x [i=3, i=55]
3 x [i=4, i=54]
4 x [i=4, i=74, i=75]
2 x [i=5, i=53]
3 x [i=6, i=51]
1 x [i=6, i=65, i=81]
1 x [i=6, i=69, i=77]
1 x [i=7, i=50]
2 x [i=7, i=71, i=75]
2 x [i=8, i=49]
2 x [i=8, i=63, i=81]
1 x [i=8, i=72, i=78]
1 x [i=9, i=48]
3 x [i=10, i=47]
1 x [i=10, i=63, i=79]
2 x [i=11, i=46]
2 x [i=12, i=45]
1 x [i=13, i=68, i=73]
2 x [i=14, i=42]
1 x [i=15, i=41]
1 x [i=15, i=66, i=73]
2 x [i=16, i=40]
1 x [i=16, i=59, i=77]
2 x [i=17, i=39]
3 x [i=18, i=38]
1 x [i=19, i=37]
1 x [i=20, i=36]
1 x [i=20, i=52, i=80]
1 x [i=20, i=61, i=73]
3 x [i=21, i=35]
1 x [i=22, i=56, i=76]
1 x [i=23, i=33]
3 x [i=24, i=32]
1 x [i=24, i=48, i=80]
2 x [i=25, i=31]
2 x [i=26, i=30]
1 x [i=26, i=60, i=70]
1 x [i=26, i=62, i=68]
1 x [i=26, i=67, i=72]
2 x [i=27, i=29]
2 x [i=28, i=28]
2 x [i=34, i=59, i=64]
1 x [i=34, i=60, i=63]
1 x [i=35, i=45, i=75]
2 x [i=37, i=55, i=66]
1 x [i=37, i=58, i=62]
1 x [i=38, i=44, i=73]
1 x [i=39, i=43, i=73]
1 x [i=39, i=78]
1 x [i=42, i=55, i=61]
